multiobj/instances/reallike/Ter-rl-5-2-0.00-0.5-1.in
5 2
0 123 17 72 89 
123 0 116 51 121 
17 116 0 64 101 
72 51 64 0 97 
89 121 101 97 0 
0 15 0 0 0 
15 0 13 257 116 
0 13 0 36826 0 
0 257 36826 0 10 
0 116 0 10 0 
0 17390 0 0 0 
17390 0 0 0 0 
0 0 0 0 4288 
0 0 0 0 0 
0 0 4288 0 0 
