multiobj/solutions/reallike/Ter-rl-5-2-0.00-0.5-1.out
5 2
4 3 2 0 1 
1307958 4368476 
1 3 0 2 4 
1312906 2537044 
0 2 1 3 4 
3818046 1628956 
0 2 3 1 4 
3843902 1423132 
2 0 3 4 1 
7223328 1028636 
